WARNING: for repeatability, setting FPU to use double precision
============================[ Problem Statistics ]=============================
|                                                                             |
|  Number of variables:          8953                                         |
|  Number of clauses:          158813                                         |
|  Parse time:                   0.05 s                                       |
|  Eliminated clauses:           0.05 Mb                                      |
|  Simplification time:          0.14 s                                       |
|                                                                             |
============================[ Search Statistics ]==============================
| Conflicts |          ORIGINAL         |          LEARNT          | Progress |
|           |    Vars  Clauses Literals |    Limit  Clauses Lit/Cl |          |
===============================================================================
===============================================================================
restarts              : 1
conflicts             : 12             (64 /sec)
decisions             : 58             (0.00 % random) (309 /sec)
propagations          : 12544          (66901 /sec)
conflict literals     : 39             (11.36 % deleted)
Memory used           : 26.35 MB
CPU time              : 0.1875 s

SATISFIABLE
